results_rootrelaxation/bin012_060_014.srr.sol
solution status: optimal solution found
objective value:                     2.33990147783251
_var709_                          0.00492610837438417 	(obj:0)
_var715_                           0.0443349753694582 	(obj:2)
_var726_                          0.00492610837438434 	(obj:2)
_var735_                            0.192118226600985 	(obj:0)
_var752_                            0.172413793103448 	(obj:0)
_var753_                            0.152709359605912 	(obj:0)
_var754_                             0.12807881773399 	(obj:0)
_var757_                            0.261083743842364 	(obj:0)
_var760_                          0.00985221674876846 	(obj:0)
_var776_                            0.310344827586207 	(obj:0)
_var778_                            0.201970443349753 	(obj:1)
_var782_                           0.0197044334975375 	(obj:0)
_var783_                            0.339901477832512 	(obj:0)
_var787_                            0.236453201970443 	(obj:0)
_var788_                            0.118226600985222 	(obj:0)
_var790_                            0.133004926108374 	(obj:0)
_var791_                            0.123152709359606 	(obj:0)
_var805_                            0.098522167487685 	(obj:0)
_var806_                            0.413793103448276 	(obj:0)
_var808_                            0.123152709359606 	(obj:0)
_var813_                            0.689655172413793 	(obj:0)
_var822_                            0.369458128078818 	(obj:1)
_var826_                            0.206896551724138 	(obj:0)
_var827_                            0.349753694581281 	(obj:0)
_var832_                            0.561576354679803 	(obj:0)
_var835_                           0.0886699507389166 	(obj:0)
_var839_                            0.211822660098522 	(obj:0)
_var841_                          0.00492610837438409 	(obj:0)
_var845_                            0.142857142857143 	(obj:0)
_var847_                            0.389162561576355 	(obj:1)
_var848_                            0.123152709359606 	(obj:1)
_var851_                           0.0295566502463059 	(obj:0)
_var852_                            0.438423645320197 	(obj:0)
_var857_                           0.0985221674876846 	(obj:0)
_var858_                            0.477832512315271 	(obj:1)
_var859_                            0.133004926108375 	(obj:0)
_var862_                             0.67487684729064 	(obj:0)
_var869_                           0.0837438423645318 	(obj:2)
_var870_                           0.0886699507389162 	(obj:0)
_var872_                            0.152709359605912 	(obj:0)
_var873_                           0.0689655172413789 	(obj:0)
_var875_                           0.0492610837438421 	(obj:0)
_var876_                            0.320197044334976 	(obj:0)
_var877_                           0.0689655172413792 	(obj:1)
_var879_                            0.369458128078818 	(obj:0)
_var880_                            0.167487684729063 	(obj:0)
_var883_                           0.0886699507389168 	(obj:1)
_var884_                            0.167487684729064 	(obj:0)
_var888_                            0.187192118226601 	(obj:0)
_var890_                            0.275862068965517 	(obj:0)
_var891_                           0.0443349753694586 	(obj:0)
_var892_                            0.142857142857143 	(obj:1)
_var898_                            0.187192118226601 	(obj:0)
_var899_                             0.12807881773399 	(obj:1)
_var900_                            0.103448275862069 	(obj:0)
_var901_                           0.0443349753694582 	(obj:0)
_var902_                           0.0443349753694588 	(obj:1)
_var903_                           0.0443349753694581 	(obj:0)
_var904_                           0.0344827586206897 	(obj:1)
_var905_                           0.0541871921182268 	(obj:0)
_var906_                           0.0049261083743839 	(obj:1)
