results_rootrelaxation/bin012_060_014.srr.log
SCIP version 8.0.3.5 [precision: 8 byte] [memory: block] [mode: optimized] [LP solver: Soplex 6.0.1.3] [GitHash: 438792519e]
Copyright (c) 2002-2023 Zuse Institute Berlin (ZIB)

External libraries: 
  Readline 8.1         GNU library for command line editing (gnu.org/s/readline)
  Soplex 6.0.1.3       Linear Programming Solver developed at Zuse Institute Berlin (soplex.zib.de) [GitHash: 713be0fe]
  CppAD 20180000.0     Algorithmic Differentiation of C++ algorithms developed by B. Bell (github.com/coin-or/CppAD)
  ZLIB 1.2.11          General purpose compression library by J. Gailly and M. Adler (zlib.net)
  bliss 0.77           Computing Graph Automorphism Groups by T. Junttila and P. Kaski (www.tcs.hut.fi/Software/bliss/)

user parameter file <scip.set> not found - using default parameters

srr/relaxation = TRUE

read problem <instances/bin012_060_014.srr>
============

Original problem: 
original problem has 0 variables (0 bin, 0 int, 0 impl, 0 cont) and 77 constraints

presolving:
presolving (1 rounds: 1 fast, 1 medium, 1 exhaustive):
 0 deleted vars, 0 deleted constraints, 0 added constraints, 0 tightened bounds, 0 added holes, 0 changed sides, 0 changed coefficients
 0 implications, 0 cliques
presolved problem has 0 variables (0 bin, 0 int, 0 impl, 0 cont) and 77 constraints
     77 constraints of type <linear>
Presolving Time: 0.00

 time | node  | left  |LP iter|LP it/n|mem/heur|mdpt |vars |cons |rows |cuts |sepa|confs|strbr|  dualbound   | primalbound  |  gap   | compl. 
  0.0s|     1 |     0 |     1 |     - |   710k |   0 |   1 |  77 |  77 |   0 |  0 |   0 |   0 |      --      |      --      |    Inf | unknown
r 0.0s|     1 |     0 |   816 |     - |simplero|   0 | 670 |  77 |  77 |   0 |  0 |   0 |   0 |      --      | 1.960527e+01 |    Inf | unknown
r 0.0s|     1 |     0 |   828 |     - |simplero|   0 | 681 |  77 |  77 |   0 |  0 |   0 |   0 |      --      | 1.932282e+01 |    Inf | unknown
r 0.1s|     1 |     0 |   875 |     - |simplero|   0 | 692 |  77 |  77 |   0 |  0 |   0 |   0 |      --      | 1.734082e+01 |    Inf | unknown
r 0.1s|     1 |     0 |   930 |     - |simplero|   0 | 703 |  77 |  77 |   0 |  0 |   0 |   0 |      --      | 1.528656e+01 |    Inf | unknown
r 0.1s|     1 |     0 |   964 |     - |simplero|   0 | 714 |  77 |  77 |   0 |  0 |   0 |   0 |      --      | 1.411928e+01 |    Inf | unknown
r 0.1s|     1 |     0 |   970 |     - |simplero|   0 | 714 |  77 |  77 |   0 |  0 |   0 |   0 |      --      | 1.410713e+01 |    Inf | unknown
r 0.1s|     1 |     0 |  1022 |     - |simplero|   0 | 725 |  77 |  77 |   0 |  0 |   0 |   0 |      --      | 1.305872e+01 |    Inf | unknown
r 0.1s|     1 |     0 |  1023 |     - |simplero|   0 | 725 |  77 |  77 |   0 |  0 |   0 |   0 |      --      | 1.305602e+01 |    Inf | unknown
r 0.1s|     1 |     0 |  1026 |     - |simplero|   0 | 725 |  77 |  77 |   0 |  0 |   0 |   0 |      --      | 1.305469e+01 |    Inf | unknown
r 0.1s|     1 |     0 |  1068 |     - |simplero|   0 | 736 |  77 |  77 |   0 |  0 |   0 |   0 |      --      | 1.105926e+01 |    Inf | unknown
r 0.1s|     1 |     0 |  1079 |     - |simplero|   0 | 736 |  77 |  77 |   0 |  0 |   0 |   0 |      --      | 1.098637e+01 |    Inf | unknown
r 0.1s|     1 |     0 |  1081 |     - |simplero|   0 | 736 |  77 |  77 |   0 |  0 |   0 |   0 |      --      | 1.097752e+01 |    Inf | unknown
r 0.1s|     1 |     0 |  1082 |     - |simplero|   0 | 736 |  77 |  77 |   0 |  0 |   0 |   0 |      --      | 1.097750e+01 |    Inf | unknown
r 0.1s|     1 |     0 |  1116 |     - |simplero|   0 | 747 |  77 |  77 |   0 |  0 |   0 |   0 |      --      | 9.655625e+00 |    Inf | unknown
 time | node  | left  |LP iter|LP it/n|mem/heur|mdpt |vars |cons |rows |cuts |sepa|confs|strbr|  dualbound   | primalbound  |  gap   | compl. 
r 0.1s|     1 |     0 |  1132 |     - |simplero|   0 | 747 |  77 |  77 |   0 |  0 |   0 |   0 |      --      | 9.509733e+00 |    Inf | unknown
r 0.1s|     1 |     0 |  1149 |     - |simplero|   0 | 747 |  77 |  77 |   0 |  0 |   0 |   0 |      --      | 9.435161e+00 |    Inf | unknown
r 0.1s|     1 |     0 |  1150 |     - |simplero|   0 | 747 |  77 |  77 |   0 |  0 |   0 |   0 |      --      | 9.433689e+00 |    Inf | unknown
r 0.1s|     1 |     0 |  1187 |     - |simplero|   0 | 758 |  77 |  77 |   0 |  0 |   0 |   0 |      --      | 8.492684e+00 |    Inf | unknown
r 0.1s|     1 |     0 |  1239 |     - |simplero|   0 | 758 |  77 |  77 |   0 |  0 |   0 |   0 |      --      | 7.596917e+00 |    Inf | unknown
r 0.1s|     1 |     0 |  1241 |     - |simplero|   0 | 758 |  77 |  77 |   0 |  0 |   0 |   0 |      --      | 7.596770e+00 |    Inf | unknown
r 0.1s|     1 |     0 |  1282 |     - |simplero|   0 | 769 |  77 |  77 |   0 |  0 |   0 |   0 |      --      | 6.702151e+00 |    Inf | unknown
r 0.1s|     1 |     0 |  1287 |     - |simplero|   0 | 769 |  77 |  77 |   0 |  0 |   0 |   0 |      --      | 6.656747e+00 |    Inf | unknown
r 0.1s|     1 |     0 |  1288 |     - |simplero|   0 | 769 |  77 |  77 |   0 |  0 |   0 |   0 |      --      | 6.655665e+00 |    Inf | unknown
r 0.1s|     1 |     0 |  1330 |     - |simplero|   0 | 780 |  77 |  77 |   0 |  0 |   0 |   0 |      --      | 5.586660e+00 |    Inf | unknown
r 0.1s|     1 |     0 |  1346 |     - |simplero|   0 | 780 |  77 |  77 |   0 |  0 |   0 |   0 |      --      | 5.425789e+00 |    Inf | unknown
r 0.1s|     1 |     0 |  1382 |     - |simplero|   0 | 791 |  77 |  77 |   0 |  0 |   0 |   0 |      --      | 4.797084e+00 |    Inf | unknown
r 0.1s|     1 |     0 |  1386 |     - |simplero|   0 | 791 |  77 |  77 |   0 |  0 |   0 |   0 |      --      | 4.794286e+00 |    Inf | unknown
r 0.1s|     1 |     0 |  1389 |     - |simplero|   0 | 791 |  77 |  77 |   0 |  0 |   0 |   0 |      --      | 4.793220e+00 |    Inf | unknown
r 0.1s|     1 |     0 |  1413 |     - |simplero|   0 | 802 |  77 |  77 |   0 |  0 |   0 |   0 |      --      | 4.430592e+00 |    Inf | unknown
 time | node  | left  |LP iter|LP it/n|mem/heur|mdpt |vars |cons |rows |cuts |sepa|confs|strbr|  dualbound   | primalbound  |  gap   | compl. 
r 0.1s|     1 |     0 |  1432 |     - |simplero|   0 | 802 |  77 |  77 |   0 |  0 |   0 |   0 |      --      | 4.286537e+00 |    Inf | unknown
r 0.1s|     1 |     0 |  1439 |     - |simplero|   0 | 802 |  77 |  77 |   0 |  0 |   0 |   0 |      --      | 4.272439e+00 |    Inf | unknown
r 0.1s|     1 |     0 |  1467 |     - |simplero|   0 | 813 |  77 |  77 |   0 |  0 |   0 |   0 |      --      | 3.996545e+00 |    Inf | unknown
r 0.1s|     1 |     0 |  1471 |     - |simplero|   0 | 813 |  77 |  77 |   0 |  0 |   0 |   0 |      --      | 3.993990e+00 |    Inf | unknown
  0.1s|     1 |     0 |  1507 |     - |  4330k |   0 | 824 |  77 |  77 |   0 |  0 |   0 |   0 |      --      | 3.993990e+00 |    Inf | unknown
r 0.1s|     1 |     0 |  1507 |     - |simplero|   0 | 824 |  77 |  77 |   0 |  0 |   0 |   0 |      --      | 3.637349e+00 |    Inf | unknown
r 0.1s|     1 |     0 |  1512 |     - |simplero|   0 | 824 |  77 |  77 |   0 |  0 |   0 |   0 |      --      | 3.634384e+00 |    Inf | unknown
r 0.1s|     1 |     0 |  1543 |     - |simplero|   0 | 835 |  77 |  77 |   0 |  0 |   0 |   0 |      --      | 3.295322e+00 |    Inf | unknown
r 0.1s|     1 |     0 |  1555 |     - |simplero|   0 | 835 |  77 |  77 |   0 |  0 |   0 |   0 |      --      | 3.274424e+00 |    Inf | unknown
r 0.1s|     1 |     0 |  1558 |     - |simplero|   0 | 835 |  77 |  77 |   0 |  0 |   0 |   0 |      --      | 3.272561e+00 |    Inf | unknown
r 0.1s|     1 |     0 |  1587 |     - |simplero|   0 | 846 |  77 |  77 |   0 |  0 |   0 |   0 |      --      | 3.127403e+00 |    Inf | unknown
r 0.1s|     1 |     0 |  1592 |     - |simplero|   0 | 846 |  77 |  77 |   0 |  0 |   0 |   0 |      --      | 3.123842e+00 |    Inf | unknown
r 0.1s|     1 |     0 |  1623 |     - |simplero|   0 | 857 |  77 |  77 |   0 |  0 |   0 |   0 |      --      | 2.865139e+00 |    Inf | unknown
r 0.1s|     1 |     0 |  1632 |     - |simplero|   0 | 857 |  77 |  77 |   0 |  0 |   0 |   0 |      --      | 2.829984e+00 |    Inf | unknown
r 0.1s|     1 |     0 |  1637 |     - |simplero|   0 | 857 |  77 |  77 |   0 |  0 |   0 |   0 |      --      | 2.824981e+00 |    Inf | unknown
 time | node  | left  |LP iter|LP it/n|mem/heur|mdpt |vars |cons |rows |cuts |sepa|confs|strbr|  dualbound   | primalbound  |  gap   | compl. 
r 0.1s|     1 |     0 |  1667 |     - |simplero|   0 | 868 |  77 |  77 |   0 |  0 |   0 |   0 |      --      | 2.577070e+00 |    Inf | unknown
r 0.1s|     1 |     0 |  1703 |     - |simplero|   0 | 879 |  77 |  77 |   0 |  0 |   0 |   0 |      --      | 2.450809e+00 |    Inf | unknown
r 0.1s|     1 |     0 |  1719 |     - |simplero|   0 | 885 |  77 |  77 |   0 |  0 |   0 |   0 |      --      | 2.397490e+00 |    Inf | unknown
r 0.1s|     1 |     0 |  1735 |     - |simplero|   0 | 894 |  77 |  77 |   0 |  0 |   0 |   0 |      --      | 2.359942e+00 |    Inf | unknown
r 0.1s|     1 |     0 |  1746 |     - |simplero|   0 | 901 |  77 |  77 |   0 |  0 |   0 |   0 |      --      | 2.342642e+00 |    Inf | unknown
r 0.1s|     1 |     0 |  1755 |     - |simplero|   0 | 904 |  77 |  77 |   0 |  0 |   0 |   0 |      --      | 2.340824e+00 |    Inf | unknown
r 0.1s|     1 |     0 |  1760 |     - |simplero|   0 | 906 |  77 |  77 |   0 |  0 |   0 |   0 |      --      | 2.339983e+00 |    Inf | unknown
r 0.1s|     1 |     0 |  1762 |     - |simplero|   0 | 907 |  77 |  77 |   0 |  0 |   0 |   0 |      --      | 2.339901e+00 |    Inf | unknown
  0.1s|     1 |     0 |  1762 |     - |  4589k |   0 | 907 |  77 |  77 |   0 |  0 |   0 |   0 | 2.339901e+00 | 2.339901e+00 |   0.00%| unknown
  0.1s|     1 |     0 |  1762 |     - |  4589k |   0 | 907 |  77 |  77 |   0 |  0 |   0 |   0 | 2.339901e+00 | 2.339901e+00 |   0.00%| unknown

SCIP Status        : problem is solved [optimal solution found]
Solving Time (sec) : 0.10
Solving Nodes      : 1
Primal Bound       : +2.33990147783251e+00 (51 solutions)
Dual Bound         : +2.33990147783251e+00
Gap                : 0.00 %

written transformed problem to file <results_rootrelaxation/bin012_060_014.srr.lp>
written transformed problem to file <results_rootrelaxation/bin012_060_014.srr.cip>


SCIP version 8.0.3.5 [precision: 8 byte] [memory: block] [mode: optimized] [LP solver: Soplex 6.0.1.3] [GitHash: 438792519e]
Copyright (c) 2002-2023 Zuse Institute Berlin (ZIB)

External libraries: 
  Readline 8.1         GNU library for command line editing (gnu.org/s/readline)
  Soplex 6.0.1.3       Linear Programming Solver developed at Zuse Institute Berlin (soplex.zib.de) [GitHash: 713be0fe]
  CppAD 20180000.0     Algorithmic Differentiation of C++ algorithms developed by B. Bell (github.com/coin-or/CppAD)
  ZLIB 1.2.11          General purpose compression library by J. Gailly and M. Adler (zlib.net)
  bliss 0.77           Computing Graph Automorphism Groups by T. Junttila and P. Kaski (www.tcs.hut.fi/Software/bliss/)

user parameter file <scip.set> not found - using default parameters

srr/relaxation = TRUE

read problem <instances/bin012_060_014.srr>
============

Original problem: 
original problem has 0 variables (0 bin, 0 int, 0 impl, 0 cont) and 77 constraints

presolving:
presolving (1 rounds: 1 fast, 1 medium, 1 exhaustive):
 0 deleted vars, 0 deleted constraints, 0 added constraints, 0 tightened bounds, 0 added holes, 0 changed sides, 0 changed coefficients
 0 implications, 0 cliques
presolved problem has 0 variables (0 bin, 0 int, 0 impl, 0 cont) and 77 constraints
     77 constraints of type <linear>
Presolving Time: 0.00

 time | node  | left  |LP iter|LP it/n|mem/heur|mdpt |vars |cons |rows |cuts |sepa|confs|strbr|  dualbound   | primalbound  |  gap   | compl. 
  0.0s|     1 |     0 |     1 |     - |   710k |   0 |   1 |  77 |  77 |   0 |  0 |   0 |   0 |      --      |      --      |    Inf | unknown
r 0.0s|     1 |     0 |   816 |     - |simplero|   0 | 670 |  77 |  77 |   0 |  0 |   0 |   0 |      --      | 1.960527e+01 |    Inf | unknown
r 0.0s|     1 |     0 |   828 |     - |simplero|   0 | 681 |  77 |  77 |   0 |  0 |   0 |   0 |      --      | 1.932282e+01 |    Inf | unknown
r 0.0s|     1 |     0 |   875 |     - |simplero|   0 | 692 |  77 |  77 |   0 |  0 |   0 |   0 |      --      | 1.734082e+01 |    Inf | unknown
r 0.1s|     1 |     0 |   930 |     - |simplero|   0 | 703 |  77 |  77 |   0 |  0 |   0 |   0 |      --      | 1.528656e+01 |    Inf | unknown
r 0.1s|     1 |     0 |   964 |     - |simplero|   0 | 714 |  77 |  77 |   0 |  0 |   0 |   0 |      --      | 1.411928e+01 |    Inf | unknown
r 0.1s|     1 |     0 |   970 |     - |simplero|   0 | 714 |  77 |  77 |   0 |  0 |   0 |   0 |      --      | 1.410713e+01 |    Inf | unknown
r 0.1s|     1 |     0 |  1022 |     - |simplero|   0 | 725 |  77 |  77 |   0 |  0 |   0 |   0 |      --      | 1.305872e+01 |    Inf | unknown
r 0.1s|     1 |     0 |  1023 |     - |simplero|   0 | 725 |  77 |  77 |   0 |  0 |   0 |   0 |      --      | 1.305602e+01 |    Inf | unknown
r 0.1s|     1 |     0 |  1026 |     - |simplero|   0 | 725 |  77 |  77 |   0 |  0 |   0 |   0 |      --      | 1.305469e+01 |    Inf | unknown
r 0.1s|     1 |     0 |  1068 |     - |simplero|   0 | 736 |  77 |  77 |   0 |  0 |   0 |   0 |      --      | 1.105926e+01 |    Inf | unknown
r 0.1s|     1 |     0 |  1079 |     - |simplero|   0 | 736 |  77 |  77 |   0 |  0 |   0 |   0 |      --      | 1.098637e+01 |    Inf | unknown
r 0.1s|     1 |     0 |  1081 |     - |simplero|   0 | 736 |  77 |  77 |   0 |  0 |   0 |   0 |      --      | 1.097752e+01 |    Inf | unknown
r 0.1s|     1 |     0 |  1082 |     - |simplero|   0 | 736 |  77 |  77 |   0 |  0 |   0 |   0 |      --      | 1.097750e+01 |    Inf | unknown
r 0.1s|     1 |     0 |  1116 |     - |simplero|   0 | 747 |  77 |  77 |   0 |  0 |   0 |   0 |      --      | 9.655625e+00 |    Inf | unknown
 time | node  | left  |LP iter|LP it/n|mem/heur|mdpt |vars |cons |rows |cuts |sepa|confs|strbr|  dualbound   | primalbound  |  gap   | compl. 
r 0.1s|     1 |     0 |  1132 |     - |simplero|   0 | 747 |  77 |  77 |   0 |  0 |   0 |   0 |      --      | 9.509733e+00 |    Inf | unknown
r 0.1s|     1 |     0 |  1149 |     - |simplero|   0 | 747 |  77 |  77 |   0 |  0 |   0 |   0 |      --      | 9.435161e+00 |    Inf | unknown
r 0.1s|     1 |     0 |  1150 |     - |simplero|   0 | 747 |  77 |  77 |   0 |  0 |   0 |   0 |      --      | 9.433689e+00 |    Inf | unknown
r 0.1s|     1 |     0 |  1187 |     - |simplero|   0 | 758 |  77 |  77 |   0 |  0 |   0 |   0 |      --      | 8.492684e+00 |    Inf | unknown
r 0.1s|     1 |     0 |  1239 |     - |simplero|   0 | 758 |  77 |  77 |   0 |  0 |   0 |   0 |      --      | 7.596917e+00 |    Inf | unknown
r 0.1s|     1 |     0 |  1241 |     - |simplero|   0 | 758 |  77 |  77 |   0 |  0 |   0 |   0 |      --      | 7.596770e+00 |    Inf | unknown
r 0.1s|     1 |     0 |  1282 |     - |simplero|   0 | 769 |  77 |  77 |   0 |  0 |   0 |   0 |      --      | 6.702151e+00 |    Inf | unknown
r 0.1s|     1 |     0 |  1287 |     - |simplero|   0 | 769 |  77 |  77 |   0 |  0 |   0 |   0 |      --      | 6.656747e+00 |    Inf | unknown
r 0.1s|     1 |     0 |  1288 |     - |simplero|   0 | 769 |  77 |  77 |   0 |  0 |   0 |   0 |      --      | 6.655665e+00 |    Inf | unknown
r 0.1s|     1 |     0 |  1330 |     - |simplero|   0 | 780 |  77 |  77 |   0 |  0 |   0 |   0 |      --      | 5.586660e+00 |    Inf | unknown
r 0.1s|     1 |     0 |  1346 |     - |simplero|   0 | 780 |  77 |  77 |   0 |  0 |   0 |   0 |      --      | 5.425789e+00 |    Inf | unknown
r 0.1s|     1 |     0 |  1382 |     - |simplero|   0 | 791 |  77 |  77 |   0 |  0 |   0 |   0 |      --      | 4.797084e+00 |    Inf | unknown
r 0.1s|     1 |     0 |  1386 |     - |simplero|   0 | 791 |  77 |  77 |   0 |  0 |   0 |   0 |      --      | 4.794286e+00 |    Inf | unknown
r 0.1s|     1 |     0 |  1389 |     - |simplero|   0 | 791 |  77 |  77 |   0 |  0 |   0 |   0 |      --      | 4.793220e+00 |    Inf | unknown
r 0.1s|     1 |     0 |  1413 |     - |simplero|   0 | 802 |  77 |  77 |   0 |  0 |   0 |   0 |      --      | 4.430592e+00 |    Inf | unknown
 time | node  | left  |LP iter|LP it/n|mem/heur|mdpt |vars |cons |rows |cuts |sepa|confs|strbr|  dualbound   | primalbound  |  gap   | compl. 
r 0.1s|     1 |     0 |  1432 |     - |simplero|   0 | 802 |  77 |  77 |   0 |  0 |   0 |   0 |      --      | 4.286537e+00 |    Inf | unknown
r 0.1s|     1 |     0 |  1439 |     - |simplero|   0 | 802 |  77 |  77 |   0 |  0 |   0 |   0 |      --      | 4.272439e+00 |    Inf | unknown
r 0.1s|     1 |     0 |  1467 |     - |simplero|   0 | 813 |  77 |  77 |   0 |  0 |   0 |   0 |      --      | 3.996545e+00 |    Inf | unknown
r 0.1s|     1 |     0 |  1471 |     - |simplero|   0 | 813 |  77 |  77 |   0 |  0 |   0 |   0 |      --      | 3.993990e+00 |    Inf | unknown
  0.1s|     1 |     0 |  1507 |     - |  4330k |   0 | 824 |  77 |  77 |   0 |  0 |   0 |   0 |      --      | 3.993990e+00 |    Inf | unknown
r 0.1s|     1 |     0 |  1507 |     - |simplero|   0 | 824 |  77 |  77 |   0 |  0 |   0 |   0 |      --      | 3.637349e+00 |    Inf | unknown
r 0.1s|     1 |     0 |  1512 |     - |simplero|   0 | 824 |  77 |  77 |   0 |  0 |   0 |   0 |      --      | 3.634384e+00 |    Inf | unknown
r 0.1s|     1 |     0 |  1543 |     - |simplero|   0 | 835 |  77 |  77 |   0 |  0 |   0 |   0 |      --      | 3.295322e+00 |    Inf | unknown
r 0.1s|     1 |     0 |  1555 |     - |simplero|   0 | 835 |  77 |  77 |   0 |  0 |   0 |   0 |      --      | 3.274424e+00 |    Inf | unknown
r 0.1s|     1 |     0 |  1558 |     - |simplero|   0 | 835 |  77 |  77 |   0 |  0 |   0 |   0 |      --      | 3.272561e+00 |    Inf | unknown
r 0.1s|     1 |     0 |  1587 |     - |simplero|   0 | 846 |  77 |  77 |   0 |  0 |   0 |   0 |      --      | 3.127403e+00 |    Inf | unknown
r 0.1s|     1 |     0 |  1592 |     - |simplero|   0 | 846 |  77 |  77 |   0 |  0 |   0 |   0 |      --      | 3.123842e+00 |    Inf | unknown
r 0.1s|     1 |     0 |  1623 |     - |simplero|   0 | 857 |  77 |  77 |   0 |  0 |   0 |   0 |      --      | 2.865139e+00 |    Inf | unknown
r 0.1s|     1 |     0 |  1632 |     - |simplero|   0 | 857 |  77 |  77 |   0 |  0 |   0 |   0 |      --      | 2.829984e+00 |    Inf | unknown
r 0.1s|     1 |     0 |  1637 |     - |simplero|   0 | 857 |  77 |  77 |   0 |  0 |   0 |   0 |      --      | 2.824981e+00 |    Inf | unknown
 time | node  | left  |LP iter|LP it/n|mem/heur|mdpt |vars |cons |rows |cuts |sepa|confs|strbr|  dualbound   | primalbound  |  gap   | compl. 
r 0.1s|     1 |     0 |  1667 |     - |simplero|   0 | 868 |  77 |  77 |   0 |  0 |   0 |   0 |      --      | 2.577070e+00 |    Inf | unknown
r 0.1s|     1 |     0 |  1703 |     - |simplero|   0 | 879 |  77 |  77 |   0 |  0 |   0 |   0 |      --      | 2.450809e+00 |    Inf | unknown
r 0.1s|     1 |     0 |  1719 |     - |simplero|   0 | 885 |  77 |  77 |   0 |  0 |   0 |   0 |      --      | 2.397490e+00 |    Inf | unknown
r 0.1s|     1 |     0 |  1735 |     - |simplero|   0 | 894 |  77 |  77 |   0 |  0 |   0 |   0 |      --      | 2.359942e+00 |    Inf | unknown
r 0.1s|     1 |     0 |  1746 |     - |simplero|   0 | 901 |  77 |  77 |   0 |  0 |   0 |   0 |      --      | 2.342642e+00 |    Inf | unknown
r 0.1s|     1 |     0 |  1755 |     - |simplero|   0 | 904 |  77 |  77 |   0 |  0 |   0 |   0 |      --      | 2.340824e+00 |    Inf | unknown
r 0.1s|     1 |     0 |  1760 |     - |simplero|   0 | 906 |  77 |  77 |   0 |  0 |   0 |   0 |      --      | 2.339983e+00 |    Inf | unknown
r 0.1s|     1 |     0 |  1762 |     - |simplero|   0 | 907 |  77 |  77 |   0 |  0 |   0 |   0 |      --      | 2.339901e+00 |    Inf | unknown
  0.1s|     1 |     0 |  1762 |     - |  4589k |   0 | 907 |  77 |  77 |   0 |  0 |   0 |   0 | 2.339901e+00 | 2.339901e+00 |   0.00%| unknown
  0.1s|     1 |     0 |  1762 |     - |  4589k |   0 | 907 |  77 |  77 |   0 |  0 |   0 |   0 | 2.339901e+00 | 2.339901e+00 |   0.00%| unknown

SCIP Status        : problem is solved [optimal solution found]
Solving Time (sec) : 0.09
Solving Nodes      : 1
Primal Bound       : +2.33990147783251e+00 (51 solutions)
Dual Bound         : +2.33990147783251e+00
Gap                : 0.00 %

written transformed problem to file <results_rootrelaxation/bin012_060_014.srr.lp>
written transformed problem to file <results_rootrelaxation/bin012_060_014.srr.cip>

written solution information to file <results_rootrelaxation/bin012_060_014.srr.sol>



